\ Model modified_farmers_problem_extensive_form
\ LP format - for model browsing. Use MPS format to capture full model detail.
Minimize
  150 x[0] + 230 x[1] + 260 x[2] + 79.33333333333333 y_1[0] + 70 y_1[1]
   - 56.66666666666666 y_1[2] - 50 y_1[3] - 12 y_1[4]
   - 3.333333333333333 y_1[5] + 79.33333333333333 y_2[0] + 70 y_2[1]
   - 56.66666666666666 y_2[2] - 50 y_2[3] - 12 y_2[4]
   - 3.333333333333333 y_2[5] + 79.33333333333333 y_3[0] + 70 y_3[1]
   - 56.66666666666666 y_3[2] - 50 y_3[3] - 12 y_3[4]
   - 3.333333333333333 y_3[5]
Subject To
 R0: x[0] + x[1] + x[2] <= 500
 R1: 3 x[0] + y_1[0] - y_1[2] >= 200
 R2: 3.6 x[1] + y_1[1] - y_1[3] >= 240
 R3: 24 x[2] - y_1[4] - y_1[5] >= 0
 R4: - y_1[4] >= -6000
 R5: - y_1[1] >= -40
 R6: 2.5 x[0] + y_2[0] - y_2[2] >= 200
 R7: 3 x[1] + y_2[1] - y_2[3] >= 240
 R8: 20 x[2] - y_2[4] - y_2[5] >= 0
 R9: - y_2[4] >= -6000
 R10: - y_2[1] >= -40
 R11: 2 x[0] + y_3[0] - y_3[2] >= 200
 R12: 2.4 x[1] + y_3[1] - y_3[3] >= 240
 R13: 16 x[2] - y_3[4] - y_3[5] >= 0
 R14: - y_3[4] >= -6000
 R15: - y_3[1] >= -40
 R16: x[0] = 120
 R17: x[1] = 80
 R18: x[2] = 300
Bounds
End
